* ENCODING=ISO-8859-1
NAME          CPLEX
ROWS
 N  obj1    
 G  c1      
 G  c2      
 G  c3      
 G  c4      
 G  c5      
 G  c6      
 G  c7      
 G  c8      
 G  c9      
 G  c10     
 G  c11     
 G  c12     
 G  c13     
 G  c14     
 G  c15     
 G  c16     
 G  c17     
 G  c18     
 G  c19     
 G  c20     
 G  c21     
 G  c22     
 G  c23     
 G  c24     
 G  c25     
 G  c26     
 G  c27     
 G  c28     
 G  c29     
 G  c30     
 G  c31     
 G  c32     
 G  c33     
 G  c34     
 G  c35     
 G  c36     
 G  c37     
 G  c38     
 G  c39     
 G  c40     
 G  c41     
 G  c42     
 G  c43     
 G  c44     
 G  c45     
 G  c46     
 G  c47     
 G  c48     
 G  c49     
 G  c50     
 G  c51     
 G  c52     
 G  c53     
 G  c54     
 G  c55     
 G  c56     
 G  c57     
 G  c58     
 G  c59     
 G  c60     
COLUMNS
    MARK0000  'MARKER'                 'INTORG'
    x1        obj1                            1
    x1        c1                            528
    x1        c2                            219
    x1        c10                           991
    x1        c31                           250
    x1        c32                           675
    x1        c35                           353
    x1        c46                           495
    x1        c53                           825
    x2        obj1                            1
    x2        c8                            247
    x2        c16                           371
    x2        c23                           793
    x2        c24                           921
    x2        c31                           191
    x2        c37                           778
    x2        c38                           747
    x2        c43                           651
    x2        c53                           794
    x2        c58                           966
    x3        obj1                            1
    x3        c13                           501
    x3        c25                           587
    x3        c45                           617
    x3        c48                           822
    x3        c49                           167
    x3        c59                           962
    x4        obj1                            1
    x4        c2                            322
    x4        c6                            877
    x4        c11                           834
    x4        c17                           981
    x4        c31                           987
    x4        c38                           997
    x4        c52                           690
    x5        obj1                            1
    x5        c2                            347
    x5        c11                           685
    x5        c28                           152
    x5        c52                           405
    x5        c60                           940
    x6        obj1                            1
    x6        c6                            650
    x6        c10                           278
    x6        c32                           254
    x6        c34                           269
    x6        c39                           550
    x6        c42                           305
    x6        c50                           643
    x7        obj1                            1
    x7        c4                            999
    x7        c19                           574
    x7        c28                           324
    x7        c34                           981
    x7        c41                           706
    x7        c42                           555
    x7        c47                           728
    x7        c50                           191
    x8        obj1                            1
    x8        c22                           515
    x8        c35                           735
    x9        obj1                            1
    x9        c9                            789
    x9        c10                           553
    x9        c16                           935
    x9        c30                           682
    x9        c34                           846
    x9        c57                           887
    x10       obj1                            1
    x10       c11                           570
    x10       c13                           885
    x10       c15                           272
    x10       c17                           370
    x10       c18                           667
    x10       c20                           185
    x10       c52                           466
    x11       obj1                            1
    x11       c21                           400
    x11       c23                           656
    x11       c29                           553
    x11       c50                           660
    x11       c55                           560
    x12       obj1                            1
    x12       c10                           886
    x12       c13                           861
    x12       c16                           657
    x12       c20                           934
    x12       c23                           261
    x12       c25                           648
    x12       c36                           299
    x12       c43                           952
    x12       c44                           684
    x13       obj1                            1
    x13       c19                           996
    x13       c40                           936
    x13       c55                           558
    x14       obj1                            1
    x14       c18                           108
    x14       c30                           155
    x14       c53                           162
    x15       obj1                            1
    x15       c7                            323
    x15       c26                           177
    x15       c29                           344
    x15       c33                           229
    x15       c36                           559
    x15       c37                           251
    x15       c44                           734
    x15       c48                           710
    x15       c60                           154
    x16       obj1                            1
    x16       c11                           640
    x16       c22                           668
    x16       c23                           331
    x16       c24                           302
    x17       obj1                            1
    x17       c3                            275
    x17       c10                           276
    x17       c12                           279
    x17       c27                           587
    x17       c37                           562
    x17       c42                           233
    x17       c59                           178
    x18       obj1                            1
    x18       c16                           234
    x18       c21                           920
    x18       c24                           210
    x18       c25                           732
    x18       c50                           337
    x18       c59                           478
    x19       obj1                            1
    x19       c12                           224
    x19       c25                           908
    x19       c26                           141
    x19       c29                           585
    x19       c42                           731
    x19       c52                           670
    x20       obj1                            1
    x20       c19                           569
    x20       c47                           250
    x20       c49                           137
    x21       obj1                            1
    x21       c1                            377
    x21       c8                            561
    x21       c21                           841
    x21       c27                           950
    x21       c43                           531
    x21       c44                           101
    x21       c51                           113
    x21       c57                           184
    x22       obj1                            1
    x22       c7                            881
    x22       c27                           688
    x22       c50                           349
    x22       c60                           199
    x23       obj1                            1
    x23       c21                           268
    x23       c34                           374
    x23       c36                           294
    x23       c37                           993
    x23       c41                           223
    x23       c58                           236
    x24       obj1                            1
    x24       c12                           757
    x24       c26                           786
    x24       c33                           600
    x24       c34                           922
    x24       c47                           498
    x24       c53                           430
    x25       obj1                            1
    x25       c3                            403
    x25       c4                            403
    x25       c13                           403
    x25       c15                           354
    x25       c30                           186
    x25       c59                           935
    x26       obj1                            1
    x26       c6                            992
    x26       c14                           750
    x26       c22                           603
    x26       c27                           836
    x26       c30                           361
    x26       c31                           968
    x26       c40                           486
    x26       c43                           344
    x26       c50                           788
    x26       c51                           398
    x26       c55                           788
    x27       obj1                            1
    x27       c3                            968
    x27       c4                            602
    x27       c5                            864
    x27       c7                            436
    x27       c10                           994
    x27       c15                           983
    x27       c21                           331
    x27       c31                           934
    x27       c32                           279
    x27       c45                           534
    x27       c48                           891
    x27       c55                           201
    x27       c59                           899
    x27       c60                           145
    x28       obj1                            1
    x28       c1                            605
    x28       c10                           872
    x28       c13                           735
    x28       c20                           523
    x28       c24                           167
    x28       c31                           110
    x28       c33                           892
    x28       c47                           720
    x28       c48                           824
    x29       obj1                            1
    x29       c2                            181
    x29       c13                           650
    x29       c37                           260
    x29       c42                           583
    x30       obj1                            1
    x30       c5                            265
    x30       c6                            877
    x30       c14                          1000
    x30       c22                           316
    x30       c27                           193
    x30       c48                           918
    x30       c50                           820
    x30       c55                           833
    x30       c56                           192
    x30       c60                           106
    x31       obj1                            1
    x31       c1                            277
    x31       c8                            429
    x32       obj1                            1
    x32       c21                           551
    x32       c35                           737
    x32       c49                           464
    x33       obj1                            1
    x33       c4                            229
    x33       c12                           613
    x33       c20                           140
    x33       c23                           386
    x33       c33                           414
    x33       c46                           901
    x33       c48                           577
    x33       c52                           388
    x33       c53                           853
    x34       obj1                            1
    x34       c15                           583
    x34       c32                           913
    x34       c34                           219
    x34       c42                           587
    x34       c58                           407
    x34       c59                           794
    x35       obj1                            1
    x35       c9                            282
    x35       c10                           693
    x35       c18                           139
    x35       c19                           578
    x35       c51                           872
    x35       c55                           880
    x35       c59                           226
    x36       obj1                            1
    x36       c4                            203
    x36       c5                            125
    x36       c17                           765
    x36       c22                           220
    x36       c23                           492
    x36       c29                           636
    x36       c38                           504
    x36       c39                           949
    x36       c43                           657
    x36       c57                           164
    x36       c60                           823
    x37       obj1                            1
    x37       c17                           728
    x37       c37                           644
    x37       c45                           317
    x38       obj1                            1
    x38       c3                            661
    x38       c5                           1000
    x38       c6                            774
    x38       c8                            358
    x38       c9                            593
    x38       c11                           786
    x38       c15                           954
    x38       c20                           503
    x38       c37                           109
    x38       c41                           250
    x38       c43                           286
    x38       c45                           938
    x39       obj1                            1
    x39       c47                           920
    x40       obj1                            1
    x40       c5                            403
    x40       c16                           121
    x40       c41                           759
    x40       c42                           949
    x40       c47                           963
    x40       c52                           744
    x41       obj1                            1
    x41       c3                            445
    x41       c4                            947
    x41       c6                            432
    x41       c9                            834
    x41       c13                           937
    x41       c16                           287
    x41       c30                           296
    x41       c33                           682
    x41       c58                           569
    x42       obj1                            1
    x42       c3                            466
    x42       c16                           951
    x42       c24                           665
    x42       c35                           303
    x42       c40                           263
    x43       obj1                            1
    x43       c9                            317
    x43       c14                           486
    x43       c24                           460
    x43       c42                           534
    x44       obj1                            1
    x44       c7                            370
    x44       c9                            565
    x44       c23                           941
    x44       c29                           661
    x44       c35                           274
    x44       c37                           473
    x44       c47                           696
    x44       c50                           275
    x45       obj1                            1
    x45       c1                            925
    x45       c3                            937
    x45       c7                            468
    x45       c8                            136
    x45       c10                           131
    x45       c27                           627
    x45       c40                           987
    x45       c43                           716
    x45       c50                           966
    x45       c51                           329
    x45       c57                           123
    x46       obj1                            1
    x46       c8                            286
    x46       c11                           561
    x46       c17                           251
    x46       c19                           191
    x46       c23                           296
    x46       c27                           216
    x46       c29                           124
    x46       c31                           366
    x46       c33                           872
    x46       c56                           367
    x47       obj1                            1
    x47       c15                           322
    x47       c26                           257
    x47       c39                           627
    x47       c54                           621
    x47       c56                           715
    x48       obj1                            1
    x48       c7                            556
    x48       c14                           499
    x48       c30                           241
    x49       obj1                            1
    x49       c2                            245
    x49       c31                           348
    x49       c33                           464
    x49       c43                           818
    x49       c44                           508
    x49       c46                           349
    x49       c58                           217
    x50       obj1                            1
    x50       c2                            922
    x50       c4                            881
    x50       c7                            581
    x50       c9                            886
    x50       c13                           292
    x50       c31                           896
    x50       c51                           605
    x50       c54                           591
    x50       c58                           425
    x50       c60                           342
    x51       obj1                            1
    x51       c9                            670
    x51       c12                           330
    x51       c30                           136
    x51       c32                           421
    x51       c36                           107
    x51       c51                           642
    x52       obj1                            1
    x52       c25                           626
    x52       c33                           707
    x52       c37                           718
    x52       c40                           905
    x52       c52                           632
    x52       c53                           365
    x53       obj1                            1
    x53       c3                            344
    x53       c15                           844
    x53       c21                           625
    x53       c28                           857
    x54       obj1                            1
    x54       c1                            416
    x55       obj1                            1
    x55       c16                           403
    x55       c29                           577
    x55       c58                           198
    x56       obj1                            1
    x56       c4                            490
    x56       c5                            845
    x56       c9                            860
    x56       c25                           749
    x56       c38                           118
    x57       obj1                            1
    x57       c2                            786
    x57       c7                            719
    x57       c14                           225
    x57       c19                           279
    x57       c34                           551
    x57       c43                           824
    x57       c54                           335
    x58       obj1                            1
    x58       c7                            768
    x58       c21                           833
    x58       c24                           664
    x58       c27                           886
    x58       c45                           884
    x58       c56                           545
    x59       obj1                            1
    x59       c36                           621
    x59       c46                           816
    x59       c51                           398
    x59       c52                           183
    x60       obj1                            1
    x60       c1                            612
    x60       c8                            197
    x60       c16                           269
    x60       c29                           884
    x60       c35                           918
    x60       c40                           658
    MARK0001  'MARKER'                 'INTEND'
RHS
    rhs       c1                           1870
    rhs       c2                           1511
    rhs       c3                           2250
    rhs       c4                           2377
    rhs       c5                           1751
    rhs       c6                           2301
    rhs       c7                           2551
    rhs       c8                           1107
    rhs       c9                           2898
    rhs       c10                          2837
    rhs       c11                          2038
    rhs       c12                          1102
    rhs       c13                          2632
    rhs       c14                          1480
    rhs       c15                          2156
    rhs       c16                          2114
    rhs       c17                          1548
    rhs       c18                           457
    rhs       c19                          1594
    rhs       c20                          1143
    rhs       c21                          2385
    rhs       c22                          1161
    rhs       c23                          2078
    rhs       c24                          1695
    rhs       c25                          2125
    rhs       c26                           681
    rhs       c27                          2492
    rhs       c28                           667
    rhs       c29                          2182
    rhs       c30                          1029
    rhs       c31                          2525
    rhs       c32                          1271
    rhs       c33                          2430
    rhs       c34                          2081
    rhs       c35                          1660
    rhs       c36                           940
    rhs       c37                          2394
    rhs       c38                          1183
    rhs       c39                          1063
    rhs       c40                          2118
    rhs       c41                           969
    rhs       c42                          2239
    rhs       c43                          2890
    rhs       c44                          1014
    rhs       c45                          1645
    rhs       c46                          1281
    rhs       c47                          2388
    rhs       c48                          2371
    rhs       c49                           384
    rhs       c50                          2515
    rhs       c51                          1679
    rhs       c52                          2089
    rhs       c53                          1715
    rhs       c54                           774
    rhs       c55                          1910
    rhs       c56                           910
    rhs       c57                           679
    rhs       c58                          1509
    rhs       c59                          2236
    rhs       c60                          1355
BOUNDS
 LI bnd       x1        0
 LI bnd       x2        0
 LI bnd       x3        0
 LI bnd       x4        0
 LI bnd       x5        0
 LI bnd       x6        0
 LI bnd       x7        0
 LI bnd       x8        0
 LI bnd       x9        0
 LI bnd       x10       0
 LI bnd       x11       0
 LI bnd       x12       0
 LI bnd       x13       0
 LI bnd       x14       0
 LI bnd       x15       0
 LI bnd       x16       0
 LI bnd       x17       0
 LI bnd       x18       0
 LI bnd       x19       0
 LI bnd       x20       0
 LI bnd       x21       0
 LI bnd       x22       0
 LI bnd       x23       0
 LI bnd       x24       0
 LI bnd       x25       0
 LI bnd       x26       0
 LI bnd       x27       0
 LI bnd       x28       0
 LI bnd       x29       0
 LI bnd       x30       0
 LI bnd       x31       0
 LI bnd       x32       0
 LI bnd       x33       0
 LI bnd       x34       0
 LI bnd       x35       0
 LI bnd       x36       0
 LI bnd       x37       0
 LI bnd       x38       0
 LI bnd       x39       0
 LI bnd       x40       0
 LI bnd       x41       0
 LI bnd       x42       0
 LI bnd       x43       0
 LI bnd       x44       0
 LI bnd       x45       0
 LI bnd       x46       0
 LI bnd       x47       0
 LI bnd       x48       0
 LI bnd       x49       0
 LI bnd       x50       0
 LI bnd       x51       0
 LI bnd       x52       0
 LI bnd       x53       0
 LI bnd       x54       0
 LI bnd       x55       0
 LI bnd       x56       0
 LI bnd       x57       0
 LI bnd       x58       0
 LI bnd       x59       0
 LI bnd       x60       0
ENDATA
